Minimize
 obj: 0 X_0_1
Subject To
 out_0:
  + 1 X_0_1 + 1 X_0_2 + 1 X_0_3 + 1 X_0_4
  = 1
 in_0:
  + 1 X_1_0 + 1 X_2_0 + 1 X_3_0 + 1 X_4_0
  = 1
 out_1:
  + 1 X_1_0 + 1 X_1_2 + 1 X_1_3 + 1 X_1_4
  = 1
 in_1:
  + 1 X_0_1 + 1 X_2_1 + 1 X_3_1 + 1 X_4_1
  = 1
 out_2:
  + 1 X_2_0 + 1 X_2_1 + 1 X_2_3 + 1 X_2_4
  = 1
 in_2:
  + 1 X_0_2 + 1 X_1_2 + 1 X_3_2 + 1 X_4_2
  = 1
 out_3:
  + 1 X_3_0 + 1 X_3_1 + 1 X_3_2 + 1 X_3_4
  = 1
 in_3:
  + 1 X_0_3 + 1 X_1_3 + 1 X_2_3 + 1 X_4_3
  = 1
 out_4:
  + 1 X_4_0 + 1 X_4_1 + 1 X_4_2 + 1 X_4_3
  = 1
 in_4:
  + 1 X_0_4 + 1 X_1_4 + 1 X_2_4 + 1 X_3_4
  = 1
 mtz_1_2:
  + 1 U1 - 1 U2 + 4 X_1_2
  <= 3
 mtz_1_3:
  + 1 U1 - 1 U3 + 4 X_1_3
  <= 3
 mtz_1_4:
  + 1 U1 - 1 U4 + 4 X_1_4
  <= 3
 mtz_2_1:
  + 1 U2 - 1 U1 + 4 X_2_1
  <= 3
 mtz_2_3:
  + 1 U2 - 1 U3 + 4 X_2_3
  <= 3
 mtz_2_4:
  + 1 U2 - 1 U4 + 4 X_2_4
  <= 3
 mtz_3_1:
  + 1 U3 - 1 U1 + 4 X_3_1
  <= 3
 mtz_3_2:
  + 1 U3 - 1 U2 + 4 X_3_2
  <= 3
 mtz_3_4:
  + 1 U3 - 1 U4 + 4 X_3_4
  <= 3
 mtz_4_1:
  + 1 U4 - 1 U1 + 4 X_4_1
  <= 3
 mtz_4_2:
  + 1 U4 - 1 U2 + 4 X_4_2
  <= 3
 mtz_4_3:
  + 1 U4 - 1 U3 + 4 X_4_3
  <= 3
 obj1:
  + 822 X_0_1 + 536 X_0_2 + 1254 X_0_3 + 57 X_0_4 + 822 X_1_0 + 290 X_1_2 + 853 X_1_3 + 839 X_1_4
  + 536 X_2_0 + 290 X_2_1 + 968 X_2_3 + 557 X_2_4 + 1254 X_3_0 + 853 X_3_1 + 968 X_3_2 + 1228 X_3_4
  + 57 X_4_0 + 839 X_4_1 + 557 X_4_2 + 1228 X_4_3
  <= 1
 obj2:
  + 784 X_0_1 + 483 X_0_2 + 316 X_0_3 + 165 X_0_4 + 784 X_1_0 + 302 X_1_2 + 892 X_1_3 + 622 X_1_4
  + 483 X_2_0 + 302 X_2_1 + 628 X_2_3 + 324 X_2_4 + 316 X_3_0 + 892 X_3_1 + 628 X_3_2 + 352 X_3_4
  + 165 X_4_0 + 622 X_4_1 + 324 X_4_2 + 352 X_4_3
  <= 2
 obj3:
  + 803 X_0_1 + 766 X_0_2 + 941 X_0_3 + 553 X_0_4 + 803 X_1_0 + 177 X_1_2 + 576 X_1_3 + 250 X_1_4
  + 766 X_2_0 + 177 X_2_1 + 405 X_2_3 + 260 X_2_4 + 941 X_3_0 + 576 X_3_1 + 405 X_3_2 + 609 X_3_4
  + 553 X_4_0 + 250 X_4_1 + 260 X_4_2 + 609 X_4_3
  <= 3
 obj4:
  + 731 X_0_1 + 480 X_0_2 + 165 X_0_3 + 710 X_0_4 + 731 X_1_0 + 373 X_1_2 + 697 X_1_3 + 62 X_1_4
  + 480 X_2_0 + 373 X_2_1 + 381 X_2_3 + 392 X_2_4 + 165 X_3_0 + 697 X_3_1 + 381 X_3_2 + 690 X_3_4
  + 710 X_4_0 + 62 X_4_1 + 392 X_4_2 + 690 X_4_3
  <= 4
 obj5:
  + 339 X_0_1 + 456 X_0_2 + 695 X_0_3 + 131 X_0_4 + 339 X_1_0 + 455 X_1_2 + 700 X_1_3 + 332 X_1_4
  + 456 X_2_0 + 455 X_2_1 + 254 X_2_3 + 327 X_2_4 + 695 X_3_0 + 700 X_3_1 + 254 X_3_2 + 564 X_3_4
  + 131 X_4_0 + 332 X_4_1 + 327 X_4_2 + 564 X_4_3
  <= 5
Bounds
 1 <= U1 <= 4
 1 <= U2 <= 4
 1 <= U3 <= 4
 1 <= U4 <= 4
Binary
 X_0_1
 X_0_2
 X_0_3
 X_0_4
 X_1_0
 X_1_2
 X_1_3
 X_1_4
 X_2_0
 X_2_1
 X_2_3
 X_2_4
 X_3_0
 X_3_1
 X_3_2
 X_3_4
 X_4_0
 X_4_1
 X_4_2
 X_4_3
End
